Assets/LKHProbs~/skull.19.tsp
NAME : GeneratedProblem
COMMENT : SVGCrosshatch
TYPE : TSP
DIMENSION : 19
EDGE_WEIGHT_TYPE : EUC_2D
NODE_COORD_SECTION
1 8400 9800
2 8400 9900
3 8500 9800
4 8500 9900
5 8500 10000
6 8500 10100
7 8600 9800
8 8600 9900
9 8600 10000
10 8600 10100
11 8600 10200
12 8600 10300
13 8700 9800
14 8700 9900
15 8700 10000
16 8800 9800
17 8800 9900
18 8800 10000
19 8900 9800
EOF
