Assets/LKHProbs~/skull.19.out.txt
NAME : GeneratedProblem.2065.tour
COMMENT : Length = 2065
COMMENT : Found by LKH [Keld Helsgaun] Sun Nov 25 13:17:38 2018
TYPE : TOUR
DIMENSION : 19
TOUR_SECTION
1
2
4
5
6
12
11
10
9
8
14
15
18
17
19
16
13
7
3
-1
EOF
